
Gurobi 10.0.1 (win64) logging started Fri Jun  2 12:25:26 2023

Set parameter LogFile to value "results/log/Fattahi_setup_03_modified_deadline.log"
Gurobi Optimizer version 10.0.1 build v10.0.1rc0 (win64)

CPU model: AMD Ryzen 7 3700X 8-Core Processor, instruction set [SSE2|AVX|AVX2]
Thread count: 8 physical cores, 16 logical processors, using up to 16 threads

Optimize a model with 95 rows, 67 columns and 317 nonzeros
Model fingerprint: 0x85472bff
Model has 1 quadratic constraint
Variable types: 0 continuous, 67 integer (56 binary)
Coefficient statistics:
  Matrix range     [1e+00, 1e+09]
  QMatrix range    [1e+00, 1e+00]
  QLMatrix range   [1e+00, 3e+01]
  Objective range  [1e+00, 1e+00]
  Bounds range     [1e+00, 1e+00]
  RHS range        [1e+00, 3e+09]
Warning: Model contains large matrix coefficients
Warning: Model contains large rhs
         Consider reformulating model or setting NumericFocus parameter
         to avoid numerical issues.
Presolve removed 32 rows and 39 columns
Presolve time: 0.00s
Presolved: 72 rows, 40 columns, 259 nonzeros
Presolved model has 8 SOS constraint(s)
Variable types: 0 continuous, 40 integer (21 binary)

Root relaxation: objective 6.800000e+01, 14 iterations, 0.00 seconds (0.00 work units)

    Nodes    |    Current Node    |     Objective Bounds      |     Work
 Expl Unexpl |  Obj  Depth IntInf | Incumbent    BestBd   Gap | It/Node Time

     0     0   68.00000    0   11          -   68.00000      -     -    0s
     0     0   68.00000    0   26          -   68.00000      -     -    0s
     0     0  303.00000    0    8          -  303.00000      -     -    0s
H    0     0                     788.0000000  303.00000  61.5%     -    0s
H    0     0                     535.0000000  303.00000  43.4%     -    0s
H    0     0                     472.0000000  303.00000  35.8%     -    0s
     0     0  306.00000    0   17  472.00000  306.00000  35.2%     -    0s
H    0     0                     463.0000000  306.00000  33.9%     -    0s
H    0     0                     454.0000000  306.98551  32.4%     -    0s
     0     0  321.00000    0    9  454.00000  321.00000  29.3%     -    0s
H    0     0                     445.0000000  442.00000  0.67%     -    0s
     0     0  445.00000    0    3  445.00000  445.00000  0.00%     -    0s

Cutting planes:
  Learned: 2
  Gomory: 1
  MIR: 1
  Flow cover: 2

Explored 1 nodes (59 simplex iterations) in 0.01 seconds (0.00 work units)
Thread count was 16 (of 16 available processors)

Solution count 6: 445 454 463 ... 788

Optimal solution found (tolerance 1.00e-04)
Best objective 4.450000000000e+02, best bound 4.450000000000e+02, gap 0.0000%
Warning: variable name "y[job:0, stage:0, machine:1]" has a space
Warning: constraint name "precedence between 1,0 to 0,0 if x_[j,l,h,z,i]=1" has a space
Warning: to let Gurobi read it back, use rlp format
Warning: variable name "y[job:0, stage:0, machine:1]" has a space
Warning: constraint name "precedence between 1,0 to 0,0 if x_[j,l,h,z,i]=1" has a space
Warning: default variable names used to write mps file
Warning: default constraint names used to write mps file
Warning: variable name "y[job:0, stage:0, machine:1]" has a space
Warning: default variable names used to write solution file
